60
1 0 22
2 0 27
2 1 59
3 0 50
3 1 2
3 2 4
4 0 44
4 1 16
4 2 36
4 3 11
5 0 4
5 1 55
5 2 49
5 3 3
5 4 8
6 0 37
6 1 7
6 2 32
6 3 38
6 4 1
6 5 4
7 0 51
7 1 9
7 2 54
7 3 57
7 4 5
7 5 44
7 6 4
8 0 4
8 1 57
8 2 44
8 3 22
8 4 20
8 5 14
8 6 21
8 7 13
9 0 6
9 1 42
9 2 21
9 3 46
9 4 21
9 5 12
9 6 34
9 7 33
9 8 46
10 0 41
10 1 44
10 2 11
10 3 20
10 4 11
10 5 19
10 6 39
10 7 18
10 8 36
10 9 25
11 0 1
11 1 54
11 2 34
11 3 17
11 4 41
11 5 52
11 6 9
11 7 33
11 8 44
11 9 60
11 10 19
12 0 29
12 1 30
12 2 1
12 3 38
12 4 50
12 5 53
12 6 30
12 7 15
12 8 59
12 9 60
12 10 56
12 11 32
13 0 40
13 1 42
13 2 43
13 3 37
13 4 12
13 5 41
13 6 60
13 7 47
13 8 16
13 9 57
13 10 33
13 11 34
13 12 27
14 0 34
14 1 3
14 2 58
14 3 12
14 4 34
14 5 33
14 6 54
14 7 2
14 8 57
14 9 56
14 10 14
14 11 46
14 12 22
14 13 37
15 0 39
15 1 34
15 2 49
15 3 54
15 4 16
15 5 46
15 6 34
15 7 38
15 8 1
15 9 52
15 10 5
15 11 8
15 12 47
15 13 12
15 14 31
16 0 36
16 1 9
16 2 3
16 3 21
16 4 13
16 5 8
16 6 22
16 7 60
16 8 55
16 9 13
16 10 14
16 11 32
16 12 38
16 13 33
16 14 49
16 15 54
17 0 60
17 1 19
17 2 24
17 3 8
17 4 20
17 5 21
17 6 44
17 7 34
17 8 6
17 9 46
17 10 54
17 11 11
17 12 18
17 13 54
17 14 13
17 15 12
17 16 29
18 0 10
18 1 7
18 2 56
18 3 5
18 4 27
18 5 54
18 6 14
18 7 46
18 8 52
18 9 45
18 10 19
18 11 28
18 12 42
18 13 31
18 14 39
18 15 40
18 16 8
18 17 13
19 0 58
19 1 57
19 2 27
19 3 54
19 4 11
19 5 51
19 6 49
19 7 48
19 8 5
19 9 35
19 10 43
19 11 44
19 12 37
19 13 13
19 14 43
19 15 51
19 16 52
19 17 23
19 18 2
20 0 51
20 1 57
20 2 19
20 3 20
20 4 38
20 5 52
20 6 15
20 7 20
20 8 22
20 9 31
20 10 9
20 11 30
20 12 23
20 13 46
20 14 27
20 15 48
20 16 12
20 17 4
20 18 7
20 19 13
21 0 55
21 1 10
21 2 28
21 3 30
21 4 27
21 5 52
21 6 23
21 7 29
21 8 30
21 9 47
21 10 41
21 11 52
21 12 16
21 13 39
21 14 20
21 15 16
21 16 15
21 17 38
21 18 9
21 19 57
21 20 34
22 0 39
22 1 31
22 2 32
22 3 45
22 4 40
22 5 17
22 6 41
22 7 3
22 8 27
22 9 38
22 10 24
22 11 18
22 12 21
22 13 49
22 14 39
22 15 19
22 16 58
22 17 58
22 18 13
22 19 15
22 20 44
22 21 23
23 0 6
23 1 11
23 2 6
23 3 57
23 4 60
23 5 6
23 6 24
23 7 37
23 8 26
23 9 59
23 10 48
23 11 11
23 12 41
23 13 37
23 14 60
23 15 45
23 16 45
23 17 17
23 18 32
23 19 27
23 20 38
23 21 40
23 22 37
24 0 38
24 1 3
24 2 24
24 3 14
24 4 19
24 5 5
24 6 12
24 7 40
24 8 35
24 9 31
24 10 27
24 11 46
24 12 40
24 13 53
24 14 49
24 15 41
24 16 18
24 17 18
24 18 7
24 19 43
24 20 53
24 21 59
24 22 33
24 23 42
25 0 44
25 1 29
25 2 2
25 3 51
25 4 56
25 5 28
25 6 16
25 7 22
25 8 9
25 9 31
25 10 49
25 11 45
25 12 60
25 13 8
25 14 9
25 15 48
25 16 58
25 17 54
25 18 41
25 19 9
25 20 8
25 21 41
25 22 59
25 23 7
25 24 52
26 0 15
26 1 55
26 2 38
26 3 32
26 4 32
26 5 22
26 6 37
26 7 41
26 8 36
26 9 38
26 10 46
26 11 35
26 12 3
26 13 47
26 14 49
26 15 32
26 16 13
26 17 34
26 18 41
26 19 45
26 20 37
26 21 39
26 22 3
26 23 45
26 24 30
26 25 12
27 0 17
27 1 13
27 2 5
27 3 8
27 4 52
27 5 4
27 6 29
27 7 43
27 8 33
27 9 8
27 10 52
27 11 1
27 12 2
27 13 35
27 14 27
27 15 33
27 16 47
27 17 60
27 18 36
27 19 17
27 20 26
27 21 60
27 22 59
27 23 34
27 24 48
27 25 23
27 26 29
28 0 47
28 1 23
28 2 35
28 3 20
28 4 49
28 5 3
28 6 43
28 7 59
28 8 35
28 9 2
28 10 29
28 11 9
28 12 11
28 13 47
28 14 45
28 15 25
28 16 29
28 17 1
28 18 43
28 19 23
28 20 17
28 21 2
28 22 47
28 23 50
28 24 5
28 25 18
28 26 31
28 27 51
29 0 26
29 1 45
29 2 38
29 3 42
29 4 8
29 5 18
29 6 25
29 7 44
29 8 55
29 9 38
29 10 29
29 11 56
29 12 23
29 13 4
29 14 30
29 15 42
29 16 8
29 17 13
29 18 19
29 19 51
29 20 41
29 21 49
29 22 40
29 23 14
29 24 13
29 25 37
29 26 24
29 27 18
29 28 41
30 0 35
30 1 54
30 2 22
30 3 28
30 4 33
30 5 8
30 6 44
30 7 42
30 8 11
30 9 27
30 10 36
30 11 12
30 12 56
30 13 7
30 14 36
30 15 11
30 16 10
30 17 16
30 18 23
30 19 34
30 20 50
30 21 38
30 22 30
30 23 23
30 24 18
30 25 14
30 26 39
30 27 38
30 28 5
30 29 7
31 0 48
31 1 38
31 2 54
31 3 33
31 4 1
31 5 30
31 6 59
31 7 16
31 8 55
31 9 45
31 10 43
31 11 1
31 12 57
31 13 40
31 14 57
31 15 2
31 16 4
31 17 11
31 18 42
31 19 31
31 20 34
31 21 25
31 22 5
31 23 10
31 24 49
31 25 7
31 26 20
31 27 17
31 28 34
31 29 32
31 30 44
32 0 57
32 1 52
32 2 28
32 3 41
32 4 30
32 5 41
32 6 54
32 7 1
32 8 10
32 9 53
32 10 48
32 11 18
32 12 31
32 13 13
32 14 34
32 15 12
32 16 16
32 17 23
32 18 60
32 19 37
32 20 28
32 21 11
32 22 37
32 23 16
32 24 6
32 25 41
32 26 5
32 27 12
32 28 41
32 29 33
32 30 32
32 31 8
33 0 29
33 1 6
33 2 39
33 3 43
33 4 13
33 5 58
33 6 20
33 7 7
33 8 28
33 9 55
33 10 26
33 11 28
33 12 16
33 13 43
33 14 10
33 15 6
33 16 28
33 17 48
33 18 36
33 19 47
33 20 51
33 21 9
33 22 54
33 23 56
33 24 6
33 25 56
33 26 1
33 27 1
33 28 13
33 29 14
33 30 52
33 31 27
33 32 51
34 0 35
34 1 22
34 2 23
34 3 34
34 4 39
34 5 47
34 6 48
34 7 21
34 8 26
34 9 18
34 10 15
34 11 28
34 12 1
34 13 49
34 14 27
34 15 43
34 16 19
34 17 12
34 18 29
34 19 39
34 20 44
34 21 42
34 22 21
34 23 18
34 24 38
34 25 10
34 26 8
34 27 28
34 28 45
34 29 12
34 30 53
34 31 34
34 32 17
34 33 35
35 0 11
35 1 42
35 2 6
35 3 27
35 4 55
35 5 23
35 6 20
35 7 58
35 8 40
35 9 5
35 10 24
35 11 45
35 12 42
35 13 28
35 14 1
35 15 11
35 16 47
35 17 9
35 18 59
35 19 9
35 20 51
35 21 11
35 22 36
35 23 7
35 24 31
35 25 44
35 26 6
35 27 33
35 28 4
35 29 31
35 30 31
35 31 50
35 32 5
35 33 58
35 34 40
36 0 35
36 1 8
36 2 28
36 3 25
36 4 47
36 5 60
36 6 45
36 7 11
36 8 1
36 9 31
36 10 30
36 11 31
36 12 57
36 13 56
36 14 44
36 15 8
36 16 53
36 17 15
36 18 30
36 19 45
36 20 48
36 21 11
36 22 58
36 23 33
36 24 13
36 25 29
36 26 49
36 27 16
36 28 8
36 29 58
36 30 49
36 31 5
36 32 27
36 33 17
36 34 40
36 35 47
37 0 55
37 1 19
37 2 40
37 3 12
37 4 24
37 5 3
37 6 44
37 7 18
37 8 55
37 9 46
37 10 53
37 11 1
37 12 3
37 13 16
37 14 11
37 15 30
37 16 17
37 17 35
37 18 37
37 19 5
37 20 43
37 21 52
37 22 44
37 23 39
37 24 58
37 25 1
37 26 42
37 27 51
37 28 14
37 29 49
37 30 13
37 31 18
37 32 8
37 33 52
37 34 31
37 35 10
37 36 20
38 0 27
38 1 14
38 2 13
38 3 21
38 4 8
38 5 2
38 6 27
38 7 4
38 8 57
38 9 12
38 10 12
38 11 46
38 12 3
38 13 35
38 14 46
38 15 37
38 16 36
38 17 33
38 18 21
38 19 8
38 20 4
38 21 59
38 22 42
38 23 56
38 24 12
38 25 21
38 26 56
38 27 46
38 28 23
38 29 24
38 30 7
38 31 46
38 32 12
38 33 2
38 34 48
38 35 17
38 36 18
38 37 27
39 0 39
39 1 43
39 2 1
39 3 32
39 4 32
39 5 26
39 6 9
39 7 6
39 8 11
39 9 30
39 10 7
39 11 33
39 12 53
39 13 39
39 14 9
39 15 52
39 16 58
39 17 14
39 18 17
39 19 15
39 20 9
39 21 35
39 22 37
39 23 41
39 24 47
39 25 7
39 26 32
39 27 6
39 28 47
39 29 26
39 30 19
39 31 12
39 32 40
39 33 53
39 34 18
39 35 2
39 36 55
39 37 24
39 38 9
40 0 40
40 1 49
40 2 48
40 3 20
40 4 50
40 5 13
40 6 41
40 7 44
40 8 15
40 9 60
40 10 30
40 11 46
40 12 56
40 13 23
40 14 45
40 15 40
40 16 57
40 17 59
40 18 8
40 19 53
40 20 12
40 21 21
40 22 9
40 23 30
40 24 2
40 25 44
40 26 34
40 27 12
40 28 21
40 29 54
40 30 35
40 31 20
40 32 57
40 33 29
40 34 50
40 35 2
40 36 20
40 37 57
40 38 26
40 39 16
41 0 41
41 1 32
41 2 35
41 3 32
41 4 8
41 5 27
41 6 41
41 7 25
41 8 54
41 9 7
41 10 51
41 11 16
41 12 49
41 13 43
41 14 15
41 15 45
41 16 17
41 17 43
41 18 44
41 19 60
41 20 50
41 21 36
41 22 37
41 23 31
41 24 37
41 25 40
41 26 34
41 27 16
41 28 34
41 29 55
41 30 4
41 31 31
41 32 15
41 33 10
41 34 48
41 35 9
41 36 17
41 37 50
41 38 59
41 39 56
41 40 13
42 0 27
42 1 26
42 2 38
42 3 4
42 4 23
42 5 56
42 6 2
42 7 45
42 8 32
42 9 16
42 10 20
42 11 26
42 12 2
42 13 48
42 14 23
42 15 22
42 16 4
42 17 37
42 18 48
42 19 44
42 20 28
42 21 35
42 22 58
42 23 29
42 24 42
42 25 48
42 26 11
42 27 21
42 28 14
42 29 19
42 30 52
42 31 33
42 32 36
42 33 9
42 34 22
42 35 38
42 36 38
42 37 45
42 38 44
42 39 39
42 40 30
42 41 49
43 0 34
43 1 36
43 2 38
43 3 56
43 4 53
43 5 45
43 6 51
43 7 6
43 8 29
43 9 27
43 10 56
43 11 46
43 12 15
43 13 15
43 14 36
43 15 29
43 16 39
43 17 45
43 18 54
43 19 23
43 20 50
43 21 20
43 22 57
43 23 13
43 24 38
43 25 36
43 26 57
43 27 26
43 28 5
43 29 31
43 30 47
43 31 46
43 32 15
43 33 14
43 34 36
43 35 17
43 36 42
43 37 6
43 38 10
43 39 36
43 40 37
43 41 44
43 42 58
44 0 4
44 1 35
44 2 43
44 3 21
44 4 55
44 5 26
44 6 19
44 7 2
44 8 45
44 9 55
44 10 45
44 11 60
44 12 47
44 13 47
44 14 24
44 15 19
44 16 52
44 17 34
44 18 5
44 19 49
44 20 6
44 21 25
44 22 31
44 23 15
44 24 26
44 25 37
44 26 26
44 27 29
44 28 60
44 29 29
44 30 57
44 31 2
44 32 30
44 33 4
44 34 9
44 35 54
44 36 14
44 37 39
44 38 6
44 39 15
44 40 45
44 41 57
44 42 39
44 43 47
45 0 44
45 1 49
45 2 45
45 3 45
45 4 56
45 5 21
45 6 11
45 7 40
45 8 17
45 9 8
45 10 54
45 11 32
45 12 16
45 13 53
45 14 21
45 15 2
45 16 28
45 17 37
45 18 36
45 19 48
45 20 34
45 21 14
45 22 56
45 23 2
45 24 32
45 25 5
45 26 22
45 27 54
45 28 30
45 29 1
45 30 23
45 31 21
45 32 41
45 33 42
45 34 29
45 35 38
45 36 29
45 37 39
45 38 41
45 39 27
45 40 16
45 41 47
45 42 56
45 43 23
45 44 48
46 0 45
46 1 59
46 2 13
46 3 15
46 4 18
46 5 22
46 6 28
46 7 10
46 8 22
46 9 25
46 10 50
46 11 45
46 12 37
46 13 29
46 14 33
46 15 40
46 16 46
46 17 47
46 18 3
46 19 51
46 20 51
46 21 32
46 22 8
46 23 12
46 24 8
46 25 24
46 26 47
46 27 18
46 28 32
46 29 15
46 30 4
46 31 7
46 32 41
46 33 50
46 34 59
46 35 45
46 36 56
46 37 54
46 38 16
46 39 29
46 40 53
46 41 50
46 42 1
46 43 41
46 44 34
46 45 48
47 0 22
47 1 28
47 2 56
47 3 2
47 4 2
47 5 55
47 6 30
47 7 48
47 8 37
47 9 29
47 10 22
47 11 57
47 12 6
47 13 51
47 14 45
47 15 24
47 16 43
47 17 17
47 18 58
47 19 44
47 20 18
47 21 14
47 22 25
47 23 49
47 24 48
47 25 53
47 26 50
47 27 11
47 28 23
47 29 46
47 30 9
47 31 33
47 32 29
47 33 33
47 34 40
47 35 35
47 36 38
47 37 3
47 38 7
47 39 2
47 40 3
47 41 25
47 42 11
47 43 43
47 44 11
47 45 34
47 46 20
48 0 47
48 1 37
48 2 14
48 3 59
48 4 43
48 5 27
48 6 55
48 7 38
48 8 30
48 9 29
48 10 54
48 11 13
48 12 11
48 13 14
48 14 1
48 15 53
48 16 47
48 17 28
48 18 54
48 19 56
48 20 4
48 21 46
48 22 41
48 23 49
48 24 50
48 25 25
48 26 38
48 27 9
48 28 44
48 29 26
48 30 6
48 31 15
48 32 36
48 33 42
48 34 43
48 35 39
48 36 59
48 37 33
48 38 44
48 39 47
48 40 10
48 41 59
48 42 60
48 43 28
48 44 10
48 45 43
48 46 59
48 47 56
49 0 18
49 1 42
49 2 42
49 3 57
49 4 9
49 5 18
49 6 30
49 7 44
49 8 24
49 9 5
49 10 15
49 11 53
49 12 33
49 13 22
49 14 7
49 15 47
49 16 41
49 17 54
49 18 9
49 19 51
49 20 42
49 21 52
49 22 19
49 23 49
49 24 35
49 25 31
49 26 37
49 27 45
49 28 55
49 29 20
49 30 38
49 31 37
49 32 28
49 33 45
49 34 20
49 35 37
49 36 32
49 37 32
49 38 20
49 39 28
49 40 36
49 41 17
49 42 43
49 43 30
49 44 14
49 45 1
49 46 4
49 47 4
49 48 27
50 0 34
50 1 32
50 2 49
50 3 1
50 4 20
50 5 54
50 6 50
50 7 7
50 8 22
50 9 1
50 10 31
50 11 41
50 12 12
50 13 12
50 14 43
50 15 13
50 16 53
50 17 12
50 18 51
50 19 48
50 20 35
50 21 1
50 22 30
50 23 47
50 24 27
50 25 48
50 26 4
50 27 10
50 28 17
50 29 14
50 30 26
50 31 48
50 32 53
50 33 25
50 34 32
50 35 56
50 36 48
50 37 11
50 38 30
50 39 36
50 40 14
50 41 11
50 42 45
50 43 1
50 44 38
50 45 11
50 46 58
50 47 53
50 48 18
50 49 40
51 0 3
51 1 18
51 2 42
51 3 22
51 4 33
51 5 42
51 6 39
51 7 27
51 8 56
51 9 2
51 10 23
51 11 33
51 12 50
51 13 1
51 14 17
51 15 44
51 16 8
51 17 9
51 18 35
51 19 19
51 20 28
51 21 12
51 22 40
51 23 43
51 24 32
51 25 42
51 26 23
51 27 11
51 28 24
51 29 11
51 30 43
51 31 58
51 32 29
51 33 6
51 34 50
51 35 3
51 36 60
51 37 26
51 38 60
51 39 41
51 40 9
51 41 42
51 42 17
51 43 30
51 44 15
51 45 39
51 46 47
51 47 44
51 48 23
51 49 5
51 50 49
52 0 41
52 1 43
52 2 21
52 3 26
52 4 47
52 5 18
52 6 38
52 7 9
52 8 50
52 9 46
52 10 1
52 11 39
52 12 8
52 13 41
52 14 53
52 15 54
52 16 27
52 17 19
52 18 16
52 19 3
52 20 31
52 21 58
52 22 5
52 23 3
52 24 7
52 25 3
52 26 30
52 27 32
52 28 55
52 29 57
52 30 40
52 31 49
52 32 56
52 33 4
52 34 41
52 35 59
52 36 60
52 37 22
52 38 47
52 39 59
52 40 44
52 41 57
52 42 30
52 43 54
52 44 48
52 45 53
52 46 51
52 47 15
52 48 40
52 49 29
52 50 37
52 51 13
53 0 53
53 1 5
53 2 9
53 3 14
53 4 45
53 5 29
53 6 27
53 7 4
53 8 52
53 9 57
53 10 18
53 11 35
53 12 50
53 13 27
53 14 55
53 15 48
53 16 22
53 17 15
53 18 1
53 19 38
53 20 17
53 21 23
53 22 47
53 23 53
53 24 16
53 25 23
53 26 37
53 27 5
53 28 21
53 29 19
53 30 58
53 31 9
53 32 33
53 33 12
53 34 42
53 35 23
53 36 7
53 37 1
53 38 22
53 39 48
53 40 14
53 41 16
53 42 48
53 43 7
53 44 8
53 45 28
53 46 42
53 47 49
53 48 5
53 49 9
53 50 6
53 51 59
53 52 40
54 0 27
54 1 57
54 2 7
54 3 16
54 4 60
54 5 7
54 6 50
54 7 37
54 8 58
54 9 42
54 10 12
54 11 56
54 12 20
54 13 23
54 14 22
54 15 6
54 16 47
54 17 3
54 18 27
54 19 37
54 20 58
54 21 13
54 22 52
54 23 33
54 24 39
54 25 39
54 26 51
54 27 33
54 28 15
54 29 32
54 30 28
54 31 44
54 32 51
54 33 60
54 34 33
54 35 59
54 36 27
54 37 31
54 38 33
54 39 60
54 40 17
54 41 3
54 42 45
54 43 9
54 44 15
54 45 32
54 46 48
54 47 41
54 48 57
54 49 10
54 50 20
54 51 28
54 52 45
54 53 49
55 0 8
55 1 39
55 2 60
55 3 8
55 4 60
55 5 17
55 6 16
55 7 28
55 8 28
55 9 51
55 10 3
55 11 40
55 12 4
55 13 50
55 14 43
55 15 9
55 16 23
55 17 18
55 18 11
55 19 2
55 20 41
55 21 46
55 22 54
55 23 7
55 24 25
55 25 55
55 26 8
55 27 3
55 28 55
55 29 56
55 30 18
55 31 57
55 32 27
55 33 42
55 34 17
55 35 15
55 36 2
55 37 43
55 38 43
55 39 39
55 40 45
55 41 53
55 42 43
55 43 25
55 44 45
55 45 29
55 46 32
55 47 23
55 48 54
55 49 30
55 50 9
55 51 18
55 52 46
55 53 51
55 54 47
56 0 37
56 1 33
56 2 42
56 3 51
56 4 42
56 5 6
56 6 55
56 7 43
56 8 58
56 9 3
56 10 38
56 11 29
56 12 42
56 13 48
56 14 12
56 15 26
56 16 16
56 17 48
56 18 7
56 19 3
56 20 16
56 21 27
56 22 43
56 23 46
56 24 31
56 25 33
56 26 44
56 27 33
56 28 5
56 29 3
56 30 48
56 31 22
56 32 58
56 33 30
56 34 51
56 35 51
56 36 40
56 37 42
56 38 49
56 39 58
56 40 8
56 41 13
56 42 58
56 43 13
56 44 42
56 45 39
56 46 53
56 47 53
56 48 57
56 49 17
56 50 2
56 51 14
56 52 44
56 53 3
56 54 20
56 55 47
57 0 43
57 1 3
57 2 5
57 3 7
57 4 4
57 5 16
57 6 12
57 7 29
57 8 23
57 9 56
57 10 50
57 11 35
57 12 55
57 13 50
57 14 33
57 15 10
57 16 30
57 17 41
57 18 38
57 19 10
57 20 54
57 21 49
57 22 36
57 23 38
57 24 33
57 25 27
57 26 22
57 27 48
57 28 46
57 29 58
57 30 4
57 31 52
57 32 56
57 33 48
57 34 35
57 35 16
57 36 19
57 37 17
57 38 53
57 39 47
57 40 22
57 41 15
57 42 49
57 43 36
57 44 48
57 45 19
57 46 21
57 47 9
57 48 51
57 49 5
57 50 59
57 51 22
57 52 17
57 53 52
57 54 50
57 55 43
57 56 9
58 0 32
58 1 55
58 2 9
58 3 34
58 4 31
58 5 26
58 6 41
58 7 47
58 8 15
58 9 6
58 10 36
58 11 13
58 12 26
58 13 39
58 14 5
58 15 34
58 16 6
58 17 30
58 18 55
58 19 56
58 20 2
58 21 50
58 22 44
58 23 37
58 24 20
58 25 36
58 26 48
58 27 3
58 28 4
58 29 30
58 30 7
58 31 55
58 32 10
58 33 29
58 34 47
58 35 37
58 36 21
58 37 46
58 38 36
58 39 27
58 40 22
58 41 11
58 42 13
58 43 18
58 44 60
58 45 20
58 46 48
58 47 39
58 48 40
58 49 1
58 50 26
58 51 4
58 52 28
58 53 43
58 54 13
58 55 43
58 56 4
58 57 16
59 0 35
59 1 35
59 2 47
59 3 1
59 4 3
59 5 3
59 6 43
59 7 49
59 8 52
59 9 27
59 10 47
59 11 60
59 12 10
59 13 35
59 14 1
59 15 4
59 16 13
59 17 13
59 18 35
59 19 38
59 20 20
59 21 18
59 22 11
59 23 54
59 24 23
59 25 2
59 26 57
59 27 52
59 28 45
59 29 32
59 30 57
59 31 52
59 32 36
59 33 16
59 34 55
59 35 5
59 36 28
59 37 39
59 38 49
59 39 26
59 40 33
59 41 41
59 42 18
59 43 37
59 44 28
59 45 16
59 46 21
59 47 30
59 48 2
59 49 38
59 50 29
59 51 58
59 52 33
59 53 60
59 54 15
59 55 55
59 56 42
59 57 42
59 58 11
